words_train/words_63_SAT.qaiger
aag 68 16 0 1 52
32
10
14
8
22
4
20
26
6
30
12
2
18
16
28
24
136
34 28 12
36 26 10
38 20 4
40 18 2
42 41 39
44 23 7
46 21 5
48 47 45
50 48 43
52 24 8
54 22 6
56 55 53
58 56 51
60 25 9
62 27 11
64 63 61
66 64 59
68 67 37
70 29 13
72 71 35
74 72 69
76 75 35
78 30 14
80 31 15
82 81 79
84 83 76
86 72 67
88 87 37
90 19 3
92 91 47
94 55 39
96 94 93
98 61 45
100 98 97
102 63 37
104 103 53
106 104 101
108 107 75
110 108 89
112 82 77
114 113 110
116 114 85
118 113 79
120 32 16
122 33 17
124 123 121
126 125 118
128 124 119
130 129 127
132 131 117
134 130 116
136 135 133
i0 1 x[7]
i1 2 z[4]
i2 2 z[6]
i3 2 z[3]
i4 1 x[2]
i5 2 z[1]
i6 1 x[1]
i7 1 x[4]
i8 2 z[2]
i9 1 x[6]
i10 2 z[5]
i11 2 z[0]
i12 1 x[0]
i13 2 z[7]
i14 1 x[5]
i15 1 x[3]
o0 bv[0]
c
simplified
  <=
    << 4
      1
    subtract
      invert
        1
      add
        2 z
        1 x
