words_train/words_63_SAT.qaiger.qdimacs
p cnf 68 157
a 9 10 11 12 13 14 15 16 0
e 1 2 3 4 5 6 7 8 17 18 19 20 21 22 23 24 25 26 27 28 29 30 31 32 33 34 35 36 37 38 39 40 41 42 43 44 45 46 47 48 49 50 51 52 53 54 55 56 57 58 59 60 61 62 63 64 65 66 67 68 0
-14 -6 17 0
14 -17 0
6 -17 0
-13 -5 18 0
13 -18 0
5 -18 0
-10 -2 19 0
10 -19 0
2 -19 0
-9 -1 20 0
9 -20 0
1 -20 0
20 19 21 0
-20 -21 0
-19 -21 0
11 3 22 0
-11 -22 0
-3 -22 0
10 2 23 0
-10 -23 0
-2 -23 0
23 22 24 0
-23 -24 0
-22 -24 0
-24 21 25 0
24 -25 0
-21 -25 0
-12 -4 26 0
12 -26 0
4 -26 0
-11 -3 27 0
11 -27 0
3 -27 0
27 26 28 0
-27 -28 0
-26 -28 0
-28 25 29 0
28 -29 0
-25 -29 0
12 4 30 0
-12 -30 0
-4 -30 0
13 5 31 0
-13 -31 0
-5 -31 0
31 30 32 0
-31 -32 0
-30 -32 0
-32 29 33 0
32 -33 0
-29 -33 0
33 18 34 0
-33 -34 0
-18 -34 0
14 6 35 0
-14 -35 0
-6 -35 0
35 17 36 0
-35 -36 0
-17 -36 0
-36 34 37 0
36 -37 0
-34 -37 0
37 17 38 0
-37 -38 0
-17 -38 0
-15 -7 39 0
15 -39 0
7 -39 0
15 7 40 0
-15 -40 0
-7 -40 0
40 39 41 0
-40 -41 0
-39 -41 0
41 -38 42 0
-41 -42 0
38 -42 0
-36 33 43 0
36 -43 0
-33 -43 0
43 18 44 0
-43 -44 0
-18 -44 0
9 1 45 0
-9 -45 0
-1 -45 0
45 23 46 0
-45 -46 0
-23 -46 0
27 19 47 0
-27 -47 0
-19 -47 0
-47 46 48 0
47 -48 0
-46 -48 0
30 22 49 0
-30 -49 0
-22 -49 0
-49 48 50 0
49 -50 0
-48 -50 0
31 18 51 0
-31 -51 0
-18 -51 0
51 26 52 0
-51 -52 0
-26 -52 0
-52 50 53 0
52 -53 0
-50 -53 0
53 37 54 0
-53 -54 0
-37 -54 0
-54 44 55 0
54 -55 0
-44 -55 0
-41 38 56 0
41 -56 0
-38 -56 0
56 -55 57 0
-56 -57 0
55 -57 0
-57 42 58 0
57 -58 0
-42 -58 0
56 39 59 0
-56 -59 0
-39 -59 0
-16 -8 60 0
16 -60 0
8 -60 0
16 8 61 0
-16 -61 0
-8 -61 0
61 60 62 0
-61 -62 0
-60 -62 0
62 -59 63 0
-62 -63 0
59 -63 0
-62 59 64 0
62 -64 0
-59 -64 0
64 63 65 0
-64 -65 0
-63 -65 0
65 58 66 0
-65 -66 0
-58 -66 0
-65 -58 67 0
65 -67 0
58 -67 0
67 66 68 0
-67 -68 0
-66 -68 0
68 0
